outputs/case_142.model.txt
transfer_due_to_inheritance_or_share = False
paid_in_capital = 20000000
application_date = 20180623
capital_adjustment_within_6_months = True
capital_adjustment_date = 20180623
business_type = 1
share_or_capital_transfer_ratio = 0
agent_paid_in_capital = 10000000
license_issue_date = 0
transfer_due_to_inheritance = False
agent_capital_requirement = 10000000
capital_requirement = 20000000
agent_capital_paid_in_cash = 1
capital_adjustment_deadline_met = True
penalty = False
capital_paid_in_cash_flag = True
agent_capital_adjustment_deadline_met = True
agent_capital_adjustment_after_transfer_met = True
capital_adjustment_after_transfer_met = True
capital_paid_in_cash = 1